c SAT problem
p wcnf 598 2382
1 -60 75 0
1 -60 3150 0
1 60 3165 0
1 60 3135 0
1 -75 -3150 0
1 75 -60 0
1 -75 -3135 0
1 90 -3105 0
1 -90 105 0
1 -90 3165 0
1 -105 3105 0
1 -105 -106 0
1 3120 -75 0
1 3120 -120 0
1 3135 -165 0
1 3135 105 0
1 -3135 -3120 0
1 3135 181 0
1 3135 60 0
1 -3150 136 0
1 3150 -105 0
1 -3150 -181 0
1 3150 121 0
1 -3150 90 0
1 3150 60 0
1 3165 -3150 0
1 3165 151 0
1 -120 -135 0
1 120 3060 0
1 -120 121 0
1 135 3090 0
1 -150 165 0
1 150 -3090 0
1 150 3030 0
1 -150 -3135 0
1 165 -3015 0
1 165 -3060 0
1 -165 3000 0
1 -3060 195 0
1 3060 -105 0
1 3060 240 0
1 3060 210 0
1 -3060 180 0
1 -3060 3061 0
1 -3075 -225 0
1 3075 3076 0
1 -3075 180 0
1 -3075 3060 0
1 3075 -255 0
1 -3090 135 0
1 -3090 105 0
1 3090 -211 0
1 -3090 -120 0
1 3105 -3106 0
1 -3105 135 0
1 -195 -3015 0
1 -210 3015 0
1 -210 3060 0
1 -225 -210 0
1 3000 -225 0
1 3000 -3015 0
1 -3015 -195 0
1 -3015 -210 0
1 3015 180 0
1 3015 -150 0
1 -3015 -3000 0
1 3030 165 0
1 3030 3045 0
1 -3030 -240 0
1 3030 -180 0
1 3030 -150 0
1 -3030 -285 0
1 3045 -195 0
1 3045 -165 0
1 3045 -285 0
1 61 3330 0
1 61 -3300 0
1 -61 -76 0
1 -76 3330 0
1 76 -3315 0
1 76 -61 0
1 -91 -3330 0
1 91 -3300 0
1 -106 3240 0
1 -3300 166 0
1 3300 -76 0
1 3300 -151 0
1 -3300 121 0
1 3315 -166 0
1 3315 106 0
1 3315 182 0
1 3330 3331 0
1 3330 167 0
1 -3330 137 0
1 3330 152 0
1 -3345 197 0
1 3345 -3346 0
1 121 -3240 0
1 136 3300 0
1 136 135 0
1 -136 -137 0
1 -136 3285 0
1 -136 -3165 0
1 -151 3240 0
1 151 3180 0
1 151 3150 0
1 -151 -3315 0
1 151 3285 0
1 -151 -3225 0
1 166 3255 0
1 166 -3300 0
1 -166 165 0
1 -166 -167 0
1 166 3150 0
1 166 3285 0
1 -166 -3225 0
1 -166 3195 0
1 -3240 256 0
1 3240 3255 0
1 3240 196 0
1 -3240 -241 0
1 -3240 -181 0
1 3240 -151 0
1 3240 91 0
1 -3255 -256 0
1 -3255 226 0
1 3255 106 0
1 -3255 -3256 0
1 -3270 3271 0
1 3270 -106 0
1 3270 212 0
1 -3270 3285 0
1 3270 -182 0
1 3285 256 0
1 3285 166 0
1 3285 -3286 0
1 181 3150 0
1 181 3120 0
1 -181 -3090 0
1 -181 182 0
1 -196 3105 0
1 -196 -195 0
1 196 -3210 0
1 -196 3180 0
1 -196 3150 0
1 -196 -3255 0
1 -196 3165 0
1 -211 3136 0
1 -211 3105 0
1 211 3210 0
1 211 -210 0
1 -211 212 0
1 -211 -3255 0
1 -211 -3166 0
1 -226 -225 0
1 -226 -227 0
1 226 3180 0
1 -226 3151 0
1 226 -3121 0
1 226 -3090 0
1 -3180 -226 0
1 -3180 3181 0
1 3180 -240 0
1 -3180 -151 0
1 3195 166 0
1 -3195 3180 0
1 3195 -301 0
1 -3195 -151 0
1 -3195 255 0
1 -3210 -271 0
1 3210 -211 0
1 -3210 -151 0
1 3210 -3225 0
1 3225 256 0
1 -3225 166 0
1 3225 3210 0
1 3225 301 0
1 -3225 -241 0
1 -3225 211 0
1 3225 -3226 0
1 -240 3136 0
1 -240 -3075 0
1 240 -3090 0
1 240 255 0
1 255 -256 0
1 -255 3105 0
1 255 -3045 0
1 -255 -240 0
1 -255 -3090 0
1 270 3045 0
1 -270 -271 0
1 -270 -3151 0
1 285 3045 0
1 -285 3180 0
1 -285 270 0
1 285 3091 0
1 -3121 3136 0
1 3121 211 0
1 -3121 -255 0
1 3136 -226 0
1 -3136 -361 0
1 -3136 330 0
1 3136 300 0
1 3136 240 0
1 3136 -3121 0
1 3136 376 0
1 3136 -345 0
1 -3136 285 0
1 3136 255 0
1 -3151 3150 0
1 -3151 -240 0
1 -3151 -3152 0
1 -3151 346 0
1 -3151 -3166 0
1 3166 -226 0
1 -3166 346 0
1 3166 -316 0
1 300 3136 0
1 -300 -3076 0
1 300 -3015 0
1 300 -3091 0
1 -300 -3061 0
1 300 -315 0
1 315 3106 0
1 -315 -3076 0
1 -315 -3061 0
1 330 331 0
1 330 -3031 0
1 -345 3076 0
1 -345 -330 0
1 -345 3091 0
1 345 -3031 0
1 -3061 420 0
1 -3061 -3076 0
1 3061 390 0
1 3061 330 0
1 3061 -300 0
1 -3061 -435 0
1 -3061 405 0
1 3061 -3062 0
1 -3076 -3075 0
1 -3076 435 0
1 3076 -285 0
1 -3091 330 0
1 -3091 -435 0
1 3091 -406 0
1 3091 285 0
1 3106 -300 0
1 3106 3091 0
1 -3106 -345 0
1 -360 -3076 0
1 360 361 0
1 360 -375 0
1 375 -3076 0
1 -375 3046 0
1 375 360 0
1 390 -391 0
1 390 -3061 0
1 390 3001 0
1 405 -3046 0
1 405 406 0
1 -405 -3001 0
1 -3001 -405 0
1 3001 -375 0
1 3001 345 0
1 3016 -390 0
1 3016 -360 0
1 -3016 -375 0
1 3016 3001 0
1 3031 420 0
1 3031 390 0
1 -3031 3046 0
1 3031 405 0
1 -3031 -3030 0
1 -3031 -3032 0
1 -3046 -450 0
1 3046 420 0
1 3046 -3045 0
1 -3046 -390 0
1 3046 -360 0
1 3046 -465 0
1 -3046 375 0
1 62 3495 0
1 62 -61 0
1 77 3525 0
1 -77 76 0
1 -77 -3510 0
1 77 -3480 0
1 -92 3465 0
1 -92 -3480 0
1 -92 93 0
1 -107 -3480 0
1 3480 167 0
1 -3480 -152 0
1 3480 -92 0
1 -3495 3496 0
1 -3495 -137 0
1 3495 183 0
1 3495 -152 0
1 3495 92 0
1 -3510 138 0
1 3525 3526 0
1 3525 153 0
1 122 -3330 0
1 122 137 0
1 122 3345 0
1 -122 3480 0
1 122 -3450 0
1 -122 123 0
1 -137 -3330 0
1 137 -136 0
1 -137 138 0
1 137 122 0
1 152 -167 0
1 -152 -3450 0
1 167 166 0
1 -167 3495 0
1 -167 3465 0
1 167 3450 0
1 3420 -137 0
1 3420 -122 0
1 -3435 -137 0
1 3450 137 0
1 3450 -3465 0
1 3450 242 0
1 -3450 213 0
1 -3450 -183 0
1 -3450 -152 0
1 -3450 -122 0
1 3450 -92 0
1 -3465 -198 0
1 -3465 -3466 0
1 -3465 107 0
1 3465 3450 0
1 -182 3330 0
1 -182 -3300 0
1 182 3270 0
1 182 3345 0
1 -182 181 0
1 197 3330 0
1 197 -196 0
1 -197 -3300 0
1 197 3435 0
1 -212 -227 0
1 227 -3360 0
1 -227 -3270 0
1 227 -3435 0
1 -227 -3375 0
1 -227 -212 0
1 227 3316 0
1 3360 -227 0
1 3360 -197 0
1 3360 212 0
1 -3360 -182 0
1 -3375 -197 0
1 3375 212 0
1 -3375 -182 0
1 3375 317 0
1 3375 -286 0
1 3390 -257 0
1 3390 197 0
1 3390 -3405 0
1 -3390 -242 0
1 3390 -212 0
1 3390 -182 0
1 3390 317 0
1 3390 287 0
1 3405 -227 0
1 -3405 197 0
1 -3405 -302 0
1 -3405 -272 0
1 -3405 -242 0
1 -3405 -152 0
1 -241 3301 0
1 241 3270 0
1 -241 240 0
1 -241 -3346 0
1 241 -3285 0
1 241 3225 0
1 -256 -3210 0
1 256 241 0
1 256 -3346 0
1 256 3285 0
1 256 3225 0
1 271 3331 0
1 271 3271 0
1 -271 3210 0
1 271 272 0
1 271 -3346 0
1 -271 -3316 0
1 286 3210 0
1 -286 -271 0
1 286 3346 0
1 -286 3286 0
1 286 -3225 0
1 286 -287 0
1 3301 -227 0
1 -3301 301 0
1 -3301 -212 0
1 -3301 -3316 0
1 3301 -286 0
1 3316 -362 0
1 -3316 331 0
1 3316 377 0
1 -3331 3330 0
1 -3331 3332 0
1 -3331 271 0
1 -3331 -317 0
1 -3331 -286 0
1 3346 -256 0
1 3346 227 0
1 3346 -302 0
1 3346 241 0
1 -3346 -347 0
1 301 -3301 0
1 -301 302 0
1 -301 -3316 0
1 -301 3225 0
1 -301 -3166 0
1 -316 -3241 0
1 316 3180 0
1 -316 301 0
1 316 3256 0
1 -316 -317 0
1 331 -3211 0
1 331 3151 0
1 331 -3286 0
1 -331 3166 0
1 -346 -331 0
1 346 -3211 0
1 346 3286 0
1 -346 3226 0
1 3241 -3256 0
1 -3241 391 0
1 -3241 -3240 0
1 3241 3242 0
1 3241 -331 0
1 -3241 346 0
1 -3241 286 0
1 3256 -391 0
1 3256 -361 0
1 3256 -3241 0
1 -3256 406 0
1 3256 346 0
1 -3271 421 0
1 -3271 392 0
1 -3271 3272 0
1 3271 -362 0
1 -3271 -331 0
1 -3271 301 0
1 3271 316 0
1 3286 -3287 0
1 3286 -3271 0
1 3286 -436 0
1 3286 -3285 0
1 361 -3106 0
1 361 -3241 0
1 361 -3211 0
1 -361 -3151 0
1 361 3121 0
1 361 -3091 0
1 361 3196 0
1 376 -3136 0
1 -376 3241 0
1 376 3211 0
1 -376 377 0
1 376 3196 0
1 391 3137 0
1 -391 3106 0
1 -391 392 0
1 391 -3211 0
1 391 -3091 0
1 -391 -406 0
1 -391 -3256 0
1 406 3106 0
1 -406 -3241 0
1 406 3181 0
1 406 -3152 0
1 -406 -405 0
1 406 3256 0
1 406 3226 0
1 406 3196 0
1 -3181 331 0
1 3181 -496 0
1 3181 406 0
1 3181 3196 0
1 3196 481 0
1 -3196 -361 0
1 3196 -406 0
1 -3196 -376 0
1 3196 3195 0
1 -3211 -421 0
1 -3211 391 0
1 -3211 -3226 0
1 3211 331 0
1 3211 3212 0
1 -3211 436 0
1 3211 -406 0
1 3211 -376 0
1 -3226 -481 0
1 -3226 436 0
1 420 3076 0
1 420 -3046 0
1 420 -3152 0
1 -420 -3122 0
1 435 3076 0
1 -435 3091 0
1 435 -436 0
1 435 3167 0
1 450 -3077 0
1 450 3062 0
1 450 3167 0
1 465 3077 0
1 -465 3046 0
1 465 3181 0
1 -465 -3092 0
1 -465 3031 0
1 3122 -450 0
1 3122 420 0
1 -3122 -391 0
1 -3122 -3121 0
1 -3122 -510 0
1 3137 525 0
1 -3137 -495 0
1 -3137 541 0
1 -3152 511 0
1 -3167 481 0
1 -3167 -496 0
1 3167 3152 0
1 -3167 406 0
1 -480 481 0
1 -480 -3077 0
1 -480 -3031 0
1 480 -3001 0
1 495 480 0
1 510 -3137 0
1 510 3107 0
1 -510 511 0
1 525 3107 0
1 -525 3122 0
1 525 -3062 0
1 525 3032 0
1 -525 510 0
1 -3062 -480 0
1 -3062 -615 0
1 3062 -555 0
1 3062 465 0
1 -3062 3061 0
1 3062 -3063 0
1 3062 570 0
1 -3077 3078 0
1 3077 555 0
1 -3077 600 0
1 -3077 570 0
1 3077 -540 0
1 3077 510 0
1 -3092 -586 0
1 3092 495 0
1 -3092 -600 0
1 3092 571 0
1 3107 480 0
1 -3107 3108 0
1 3107 -556 0
1 -3107 600 0
1 -3107 -541 0
1 -3107 -510 0
1 -540 3077 0
1 570 -3077 0
1 -585 -3002 0
1 585 -3017 0
1 -3002 555 0
1 3002 660 0
1 3017 -585 0
1 3017 660 0
1 -3017 -510 0
1 3032 555 0
1 3032 600 0
1 3032 -540 0
1 3047 -675 0
1 3047 645 0
1 3047 615 0
1 -3047 600 0
1 -63 -3660 0
1 63 78 0
1 -63 -62 0
1 78 -77 0
1 78 3705 0
1 -78 -3675 0
1 93 -3600 0
1 -108 -3645 0
1 -108 -109 0
1 -108 -3630 0
1 -108 -3600 0
1 108 3705 0
1 -108 3615 0
1 3660 3661 0
1 3675 -199 0
1 3675 -3660 0
1 3675 78 0
1 3675 153 0
1 3675 -123 0
1 3675 3676 0
1 -3675 -63 0
1 -3690 -169 0
1 3690 139 0
1 3690 -108 0
1 -3690 -154 0
1 3690 63 0
1 -3705 -199 0
1 3705 -3690 0
1 -3705 139 0
1 -3705 -124 0
1 -123 138 0
1 -123 3600 0
1 123 -3675 0
1 -138 3525 0
1 138 137 0
1 138 3660 0
1 -138 3600 0
1 -138 3645 0
1 -153 3525 0
1 153 -168 0
1 153 3630 0
1 -153 3540 0
1 -153 -3510 0
1 -153 -154 0
1 -153 -3615 0
1 168 -3585 0
1 -168 169 0
1 168 -3660 0
1 -168 -3540 0
1 -168 -3645 0
1 -3600 -228 0
1 -3600 138 0
1 -3600 108 0
1 -3600 -3615 0
1 3615 -198 0
1 3615 108 0
1 -3630 -229 0
1 3630 199 0
1 -3630 -153 0
1 3630 123 0
1 -3645 199 0
1 3645 168 0
1 3645 214 0
1 -3645 153 0
1 -3645 123 0
1 183 -3525 0
1 183 -3465 0
1 183 -3600 0
1 -183 182 0
1 198 199 0
1 -198 -3600 0
1 198 3570 0
1 198 183 0
1 -198 3480 0
1 -198 -3450 0
1 213 3600 0
1 213 3511 0
1 -213 -3481 0
1 228 -3465 0
1 -228 -3481 0
1 228 3615 0
1 3540 228 0
1 -3540 168 0
1 3540 242 0
1 -3540 3541 0
1 3540 -183 0
1 -3555 -242 0
1 3555 -3540 0
1 3570 -303 0
1 3570 153 0
1 -3570 -318 0
1 3585 288 0
1 3585 303 0
1 -3585 -153 0
1 242 -3465 0
1 -242 241 0
1 242 -243 0
1 242 -3390 0
1 -257 3526 0
1 257 -3496 0
1 -257 -3405 0
1 -257 -242 0
1 257 -3540 0
1 -257 3450 0
1 -272 -3496 0
1 -272 3436 0
1 -272 -3481 0
1 272 -3390 0
1 287 272 0
1 287 3540 0
1 -287 3481 0
1 287 -3451 0
1 287 3421 0
1 3481 -363 0
1 -3481 332 0
1 3481 302 0
1 -3481 213 0
1 -3481 -317 0
1 -3496 228 0
1 3496 -272 0
1 -3496 347 0
1 3496 -287 0
1 3511 303 0
1 -3511 242 0
1 -3511 3510 0
1 -3511 -378 0
1 3526 363 0
1 3526 -272 0
1 -3526 213 0
1 3526 378 0
1 -3526 -348 0
1 302 -3421 0
1 302 -317 0
1 317 -3496 0
1 317 -3466 0
1 -317 -3346 0
1 -317 -3481 0
1 317 3451 0
1 -332 3361 0
1 332 333 0
1 -332 3346 0
1 -332 3451 0
1 347 -3496 0
1 -347 332 0
1 -347 -3436 0
1 -347 346 0
1 347 348 0
1 -347 -3421 0
1 3421 -422 0
1 -3421 392 0
1 -3421 332 0
1 -3421 -287 0
1 -3436 422 0
1 -3436 -3437 0
1 -3436 -272 0
1 -3436 -407 0
1 3436 317 0
1 3451 422 0
1 3451 -3466 0
1 -3451 -363 0
1 -3451 332 0
1 -3451 -3452 0
1 3451 317 0
1 -3451 287 0
1 -3466 422 0
1 3466 -3465 0
1 3466 317 0
1 362 -3361 0
1 -362 361 0
1 -362 3406 0
1 -362 3316 0
1 362 377 0
1 -362 -3421 0
1 362 -3391 0
1 -377 3376 0
1 -377 -3346 0
1 377 3316 0
1 392 -3361 0
1 392 3271 0
1 392 -3376 0
1 392 3347 0
1 392 3317 0
1 -392 3286 0
1 -392 407 0
1 407 -3317 0
1 -407 3391 0
1 3361 3360 0
1 3361 -3362 0
1 3361 421 0
1 3361 -392 0
1 -3361 -332 0
1 -3361 407 0
1 -3376 3361 0
1 3376 -497 0
1 3376 -436 0
1 -3376 377 0
1 3391 422 0
1 3391 392 0
1 -3391 -362 0
1 -3391 -377 0
1 3391 347 0
1 -3391 3390 0
1 -3406 3405 0
1 3406 467 0
1 3406 437 0
1 -421 3271 0
1 421 3302 0
1 -421 436 0
1 -421 -3286 0
1 -436 -3361 0
1 -436 3332 0
1 -436 -421 0
1 436 3211 0
1 -436 3376 0
1 -436 435 0
1 -436 -3256 0
1 436 3226 0
1 -451 -3361 0
1 451 -452 0
1 451 -3376 0
1 451 -466 0
1 -451 3257 0
1 466 3361 0
1 -466 -3272 0
1 466 3347 0
1 -466 -3257 0
1 3302 -466 0
1 3302 436 0
1 -3317 3316 0
1 -3332 512 0
1 -3332 451 0
1 3332 421 0
1 -3332 392 0
1 -3332 527 0
1 3347 -482 0
1 3347 -451 0
1 3347 -392 0
1 3347 -557 0
1 3347 527 0
1 -3347 -3346 0
1 -481 3211 0
1 481 -3152 0
1 496 -495 0
1 -511 -3212 0
1 -511 -3317 0
1 -511 3227 0
1 511 510 0
1 526 -3302 0
1 -526 3272 0
1 -526 3242 0
1 526 3317 0
1 526 3287 0
1 526 3257 0
1 -526 3227 0
1 3242 451 0
1 -3242 3241 0
1 -3242 -3243 0
1 3242 -526 0
1 3242 511 0
1 -3257 616 0
1 3257 556 0
1 3257 -3258 0
1 3272 3273 0
1 -3272 -496 0
1 3287 -616 0
1 3287 557 0
1 -3287 3286 0
1 -541 3107 0
1 541 -3242 0
1 541 -3182 0
1 -541 -3167 0
1 556 3137 0
1 -556 -3107 0
1 -556 -3242 0
1 556 -3212 0
1 -556 -3092 0
1 556 -3257 0
1 556 -3167 0
1 571 3168 0
1 571 -3107 0
1 571 3212 0
1 -571 -3182 0
1 571 -3257 0
1 -586 -3168 0
1 586 -587 0
1 586 -3227 0
1 -586 -3123 0
1 586 3257 0
1 -3182 -645 0
1 3182 526 0
1 3182 661 0
1 -3182 630 0
1 -3182 600 0
1 -3197 3196 0
1 -3197 541 0
1 3212 -676 0
1 -3212 646 0
1 -3212 -3213 0
1 3212 526 0
1 3212 -631 0
1 3212 -601 0
1 3212 571 0
1 -3227 -676 0
1 3227 -616 0
1 -3227 -586 0
1 3227 526 0
1 3227 -661 0
1 3227 631 0
1 -3227 -571 0
1 3227 -3228 0
1 600 -3138 0
1 -600 3077 0
1 600 3092 0
1 -615 3047 0
1 -615 -3153 0
1 630 -3078 0
1 -630 -3182 0
1 -630 3153 0
1 -630 3123 0
1 -630 -3063 0
1 -645 3108 0
1 645 3047 0
1 -645 3182 0
1 -645 -3093 0
1 -645 -3032 0
1 -3123 736 0
1 3123 -705 0
1 -3123 645 0
1 3123 630 0
1 -3138 645 0
1 3138 615 0
1 -3138 630 0
1 -3153 -721 0
1 3153 -691 0
1 -3153 600 0
1 -3153 571 0
1 -3168 -645 0
1 -3168 721 0
1 -3168 -630 0
1 -660 3108 0
1 -660 3078 0
1 660 -3093 0
1 -660 -3032 0
1 -675 -3138 0
1 675 3078 0
1 675 -3047 0
1 -675 3123 0
1 -690 -3108 0
1 690 3033 0
1 -705 -3048 0
1 705 3018 0
1 -705 -3093 0
1 705 -3033 0
1 3063 705 0
1 -3063 -645 0
1 -3063 -3078 0
1 3063 720 0
1 -3063 -690 0
1 -3063 660 0
1 -3063 -3062 0
1 3093 690 0
1 3093 660 0
1 -3093 -3092 0
1 3093 -630 0
1 3108 -3107 0
1 -3108 3109 0
1 -3108 -751 0
1 -3108 721 0
1 3108 -3093 0
1 -3108 766 0
1 -720 -3078 0
1 -735 -736 0
1 -735 3033 0
1 -750 -3018 0
1 750 3003 0
1 -765 -750 0
1 -765 -3063 0
1 -3003 -750 0
1 -3003 -3002 0
1 -3003 3004 0
1 3018 750 0
1 -3018 690 0
1 -3018 3003 0
1 -3033 705 0
1 3033 810 0
1 3033 750 0
1 3033 720 0
1 3033 -825 0
1 3033 765 0
1 -3048 -735 0
1 64 3855 0
1 -64 -79 0
1 -94 3840 0
1 94 3810 0
1 94 -3885 0
1 94 3855 0
1 94 -3795 0
1 109 -3885 0
1 109 3855 0
1 109 -3870 0
1 3840 169 0
1 -3840 109 0
1 -3840 124 0
1 -3840 -94 0
1 -3855 169 0
1 3855 -94 0
1 -3870 3885 0
1 -3885 109 0
1 -3885 79 0
1 -3885 -3870 0
1 -124 -3795 0
1 -124 3705 0
1 -124 123 0
1 139 -3810 0
1 139 -138 0
1 -139 -3690 0
1 139 3795 0
1 139 -124 0
1 154 -169 0
1 154 3855 0
1 154 3705 0
1 -154 3735 0
1 -169 -168 0
1 169 -3855 0
1 3780 -109 0
1 -3780 3795 0
1 -3780 184 0
1 -3780 124 0
1 -3780 94 0
1 -3795 229 0
1 -3795 -169 0
1 3795 214 0
1 -3795 154 0
1 -3810 259 0
1 -3810 -3811 0
1 3810 124 0
1 -3810 -94 0
1 -3825 3810 0
1 3825 -259 0
1 -3825 -139 0
1 3825 3826 0
1 184 -3780 0
1 -184 3765 0
1 -199 3750 0
1 -199 -3795 0
1 199 -184 0
1 214 3780 0
1 -229 -3630 0
1 229 3765 0
1 229 214 0
1 -229 3706 0
1 229 -3645 0
1 3720 288 0
1 -3720 229 0
1 3720 -169 0
1 3720 -184 0
1 -3720 154 0
1 3720 -319 0
1 -3735 304 0
1 -3735 243 0
1 3735 184 0
1 3750 229 0
1 3750 3751 0
1 -3750 -169 0
1 -3750 -244 0
1 -3765 289 0
1 -3765 3750 0
1 3765 199 0
1 3765 3766 0
1 -243 -242 0
1 243 3645 0
1 -258 259 0
1 258 -243 0
1 258 3706 0
1 273 -288 0
1 -273 3691 0
1 -273 3661 0
1 273 272 0
1 -273 -3646 0
1 -288 3585 0
1 -288 3691 0
1 288 -3601 0
1 3661 -229 0
1 -3661 -364 0
1 -3661 333 0
1 -3661 -3660 0
1 3661 3662 0
1 3661 -243 0
1 3661 379 0
1 -3661 -348 0
1 3661 -318 0
1 3676 -3661 0
1 3676 -379 0
1 3676 3677 0
1 -3691 -273 0
1 -3691 214 0
1 3691 -3706 0
1 3706 229 0
1 -3706 -3707 0
1 3706 -334 0
1 3706 -319 0
1 303 3555 0
1 303 -3646 0
1 -303 304 0
1 -303 -3601 0
1 303 -318 0
1 318 3526 0
1 318 3570 0
1 318 3511 0
1 318 -3676 0
1 318 -3646 0
1 333 -3586 0
1 -333 3556 0
1 333 -334 0
1 333 -3631 0
1 333 -3541 0
1 333 3511 0
1 -333 -348 0
1 348 -3616 0
1 -348 -3586 0
1 348 3556 0
1 -348 -3631 0
1 -348 3601 0
1 348 -3541 0
1 -348 3511 0
1 3601 -3616 0
1 3601 363 0
1 -3601 -333 0
1 -3601 -3602 0
1 -3601 -348 0
1 -3616 -333 0
1 -3616 378 0
1 3616 348 0
1 -3631 -3646 0
1 3631 394 0
1 3631 3630 0
1 -3631 -438 0
1 -3631 318 0
1 3646 423 0
1 -3646 -364 0
1 -3646 303 0
1 -3646 -273 0
1 3646 -438 0
1 3646 -318 0
1 3646 3647 0
1 363 -3616 0
1 -363 -3526 0
1 363 -3466 0
1 363 364 0
1 -363 -3571 0
1 378 3616 0
1 378 -3586 0
1 -378 -3496 0
1 -378 3466 0
1 378 3601 0
1 378 3451 0
1 378 377 0
1 378 -379 0
1 393 3586 0
1 393 3571 0
1 393 -3541 0
1 -408 3512 0
1 -3541 -483 0
1 3541 452 0
1 3541 3556 0
1 -3541 422 0
1 -3541 -393 0
1 3541 363 0
1 -3541 333 0
1 -3541 467 0
1 -3541 378 0
1 -3556 483 0
1 -3556 -393 0
1 3556 363 0
1 -3556 -333 0
1 3556 -408 0
1 -3571 3586 0
1 -3571 -363 0
1 -3571 -333 0
1 -3571 -3570 0
1 -3571 -3572 0
1 3571 408 0
1 -3586 483 0
1 3586 453 0
1 3586 423 0
1 -3586 -363 0
1 3586 -438 0
1 3586 348 0
1 -422 -423 0
1 422 3497 0
1 422 -3466 0
1 -422 3482 0
1 -437 -3556 0
1 -437 422 0
1 -437 -3527 0
1 437 -3497 0
1 437 3436 0
1 437 -3406 0
1 437 -438 0
1 -452 -3437 0
1 452 3391 0
1 -467 3527 0
1 467 3437 0
1 -467 -3406 0
1 467 466 0
1 467 -468 0
1 467 -3512 0
1 467 3422 0
1 -3482 -393 0
1 3482 408 0
1 -3482 3483 0
1 -3497 -512 0
1 -3497 482 0
1 3497 422 0
1 -3497 -3498 0
1 -3497 558 0
1 3497 527 0
1 -3497 467 0
1 3497 -437 0
1 -3512 483 0
1 3512 467 0
1 -3512 543 0
1 -3527 -513 0
1 3527 -452 0
1 -3527 3512 0
1 -3527 -3528 0
1 -3527 558 0
1 3527 498 0
1 -482 3361 0
1 482 3497 0
1 -482 -3437 0
1 482 -3406 0
1 -482 3376 0
1 482 -497 0
1 -482 3347 0
1 -497 -3361 0
1 -497 3467 0
1 497 -496 0
1 497 3376 0
1 -497 3391 0
1 -512 3377 0
1 512 -3452 0
1 -527 512 0
1 527 -3332 0
1 527 526 0
1 -527 -3377 0
1 -3422 -3437 0
1 -3422 -602 0
1 3422 3423 0
1 -3437 3436 0
1 -3437 557 0
1 -3452 -452 0
1 -3452 617 0
1 3452 497 0
1 -3452 467 0
1 3452 -3453 0
1 3467 512 0
1 3467 -588 0
1 -3467 3468 0
1 -3467 -558 0
1 -3467 -497 0
1 557 -3362 0
1 -557 -3272 0
1 557 3377 0
1 557 -3347 0
1 557 3287 0
1 557 -3422 0
1 572 3362 0
1 572 3272 0
1 -572 3407 0
1 572 3348 0
1 -572 3287 0
1 572 -3422 0
1 3362 3363 0
1 3362 -3377 0
1 -3377 -3362 0
1 -3377 677 0
1 -3377 -616 0
1 3377 557 0
1 -3392 -587 0
1 3392 -557 0
1 -3407 3392 0
1 -3407 -587 0
1 -3407 -527 0
1 -3407 662 0
1 601 -3272 0
1 601 -3377 0
1 601 3318 0
1 601 600 0
1 601 -3257 0
1 -601 602 0
1 616 -3242 0
1 616 -3348 0
1 -616 -601 0
1 -631 3362 0
1 631 3333 0
1 -631 -646 0
1 631 -3243 0
1 -631 -632 0
1 646 3212 0
1 -646 -3348 0
1 646 3318 0
1 646 -3288 0
1 3303 722 0
1 3303 -691 0
1 -3318 3303 0
1 -3318 -616 0
1 3318 -691 0
1 3318 661 0
1 3318 572 0
1 3333 707 0
1 -3333 3332 0
1 -3333 -646 0
1 -3333 3348 0
1 3348 -707 0
1 3348 -631 0
1 -3348 601 0
1 -3348 -572 0
1 -661 -3168 0
1 661 -3273 0
1 661 3227 0
1 676 3227 0
1 -691 3273 0
1 691 -3318 0
1 -691 3198 0
1 -706 3303 0
1 -706 3228 0
1 3243 706 0
1 -3243 676 0
1 -3243 781 0
1 -3243 751 0
1 -3243 3258 0
1 3258 706 0
1 -3258 -751 0
1 -3258 721 0
1 -3258 796 0
1 -3273 3274 0
1 3273 -781 0
1 3273 -752 0
1 -3273 -691 0
1 3273 -631 0
1 3288 737 0
1 -3288 646 0
1 3288 -3273 0
1 3288 -781 0
1 -3288 -661 0
1 3288 -3289 0
1 -721 3108 0
1 -721 -720 0
1 -721 722 0
1 721 3258 0
1 -721 -3198 0
1 -736 -3168 0
1 -736 721 0
1 736 -3093 0
1 736 -3258 0
1 -736 3198 0
1 -751 -3243 0
1 751 -3213 0
1 751 -3124 0
1 766 3139 0
1 -766 -3213 0
1 -766 -765 0
1 766 -767 0
1 -3183 -736 0
1 3183 706 0
1 3183 810 0
1 3198 706 0
1 -3198 -841 0
1 3198 -3183 0
1 3198 -721 0
1 3198 -691 0
1 -3198 795 0
1 -3198 -3197 0
1 3213 736 0
1 -3213 721 0
1 -3213 3228 0
1 -3228 -781 0
1 -3228 721 0
1 3228 856 0
1 -3228 3229 0
1 780 -3169 0
1 -780 -3048 0
1 -780 781 0
1 780 3124 0
1 780 3198 0
1 795 -3108 0
1 795 -3154 0
1 -795 -796 0
1 -810 -3169 0
1 810 -3079 0
1 810 811 0
1 825 3169 0
1 -825 3139 0
1 825 -3109 0
1 825 3154 0
1 -3124 -901 0
1 -3124 -751 0
1 3124 -795 0
1 3124 766 0
1 -3139 -3138 0
1 -3139 901 0
1 -3139 840 0
1 3139 -810 0
1 -3139 780 0
1 3139 885 0
1 -3139 3124 0
1 3139 -825 0
1 3139 -766 0
1 -3154 901 0
1 -3154 871 0
1 -3154 841 0
1 3154 3153 0
1 -3154 825 0
1 -3154 795 0
1 3154 -766 0
1 3169 -3168 0
1 3169 871 0
1 -3169 841 0
1 -3169 780 0
1 3169 795 0
1 840 3109 0
1 -840 -3079 0
1 -840 3018 0
1 -840 -3124 0
1 840 3094 0
1 -840 -855 0
1 840 3033 0
1 840 -3003 0
1 -855 -3109 0
1 855 -3048 0
1 -855 -3033 0
1 855 3003 0
1 870 3109 0
1 870 871 0
1 -870 -3094 0
1 -870 -3034 0
1 -885 -3049 0
1 885 -3019 0
1 885 3124 0
1 -885 -3034 0
1 -885 3004 0
1 3079 -930 0
1 -3079 810 0
1 -3079 -945 0
1 -3079 825 0
1 3094 901 0
1 3094 -810 0
1 3094 -916 0
1 3109 -901 0
1 -3109 -870 0
1 3109 -916 0
1 -3109 885 0
1 -900 -3079 0
1 900 -3049 0
1 -900 3034 0
1 -915 -3034 0
1 930 3004 0
1 -3004 900 0
1 3004 3019 0
1 -3004 -885 0
1 -3004 -3003 0
1 -3019 930 0
1 3019 3004 0
1 -3019 -945 0
1 3019 885 0
1 -3034 900 0
1 -3034 915 0
1 -3034 -3033 0
1 -3049 945 0
1 3049 -915 0
1 244 3750 0
1 -244 -3825 0
1 -259 -3750 0
1 259 -3856 0
1 259 -3825 0
1 -274 3750 0
1 274 -3856 0
1 274 273 0
1 -274 3796 0
1 -289 -3841 0
1 -289 -3886 0
1 289 -3796 0
1 -3841 -3842 0
1 -3841 -259 0
1 3841 -334 0
1 -3841 244 0
1 3856 -3841 0
1 3856 -334 0
1 -3856 -274 0
1 -3856 -244 0
1 -3886 -259 0
1 3886 3885 0
1 -304 3750 0
1 304 3720 0
1 304 -3796 0
1 -319 -318 0
1 334 3826 0
1 334 -3796 0
1 349 3841 0
1 -349 -3811 0
1 349 -3751 0
1 -349 3826 0
1 -349 -348 0
1 3781 -3782 0
1 3781 394 0
1 3781 -439 0
1 -3781 -409 0
1 -3781 -379 0
1 -3796 334 0
1 -3796 304 0
1 3796 274 0
1 3796 3795 0
1 -3796 -379 0
1 3796 349 0
1 -3796 -319 0
1 -3811 -439 0
1 3811 319 0
1 3826 -289 0
1 -3826 -424 0
1 3826 -3827 0
1 -3826 -349 0
1 364 -3781 0
1 364 -3721 0
1 379 364 0
1 -379 3796 0
1 379 3736 0
1 394 -3751 0
1 -394 3721 0
1 394 -3631 0
1 -394 -3796 0
1 -394 -409 0
1 394 3677 0
1 394 3646 0
1 409 3662 0
1 3721 -394 0
1 3721 3722 0
1 3721 334 0
1 3721 -468 0
1 -3721 -3736 0
1 -3721 379 0
1 3736 -3735 0
1 3751 -484 0
1 -3751 -3750 0
1 -3751 424 0
1 3751 -394 0
1 -3751 -334 0
1 3766 -394 0
1 3766 334 0
1 -423 3616 0
1 -423 3586 0
1 423 3692 0
1 -423 3631 0
1 -423 3736 0
1 423 3707 0
1 -438 -3586 0
1 -438 3662 0
1 438 3571 0
1 -438 437 0
1 -438 -3707 0
1 453 -3692 0
1 -453 3707 0
1 453 -3647 0
1 -468 -3721 0
1 -468 -3692 0
1 -468 3632 0
1 -468 3571 0
1 468 -469 0
1 -468 -3707 0
1 -3662 -544 0
1 -3662 513 0
1 -3662 423 0
1 -3662 394 0
1 3662 -3661 0
1 3662 -3663 0
1 -3662 -468 0
1 -3677 -483 0
1 -3677 453 0
1 -3677 -498 0
1 -3677 438 0
1 -3677 -409 0
1 3677 -3676 0
1 3692 514 0
1 -3692 438 0
1 3692 409 0
1 3707 544 0
1 -3707 -394 0
1 3707 -3706 0
1 483 -484 0
1 -483 3556 0
1 483 -498 0
1 -498 -3617 0
1 513 -528 0
1 513 -3677 0
1 -528 3557 0
1 528 3527 0
1 -528 3572 0
1 -528 3512 0
1 -3602 -483 0
1 -3602 -588 0
1 3602 558 0
1 -3602 -468 0
1 -3617 3618 0
1 3617 -453 0
1 -3617 -618 0
1 -3617 528 0
1 -3617 -573 0
1 -3632 -483 0
1 3632 453 0
1 -3632 3631 0
1 3632 -3647 0
1 -3647 513 0
1 -3647 -559 0
1 -3647 3632 0
1 -3647 468 0
1 3647 -574 0
1 543 -3527 0
1 -543 3467 0
1 -543 -3602 0
1 543 -3452 0
1 -558 -3557 0
1 -558 -3497 0
1 -558 -559 0
1 -558 3572 0
1 558 -3542 0
1 573 -3587 0
1 -573 588 0
1 573 -3572 0
1 573 -3542 0
1 588 -3498 0
1 588 589 0
1 -588 3452 0
1 3542 513 0
1 3542 588 0
1 -3542 3541 0
1 -3542 543 0
1 3557 513 0
1 3557 -678 0
1 3557 3558 0
1 -3557 663 0
1 3557 -543 0
1 3572 -513 0
1 3572 648 0
1 -3572 588 0
1 -3572 -3571 0
1 -3572 -3573 0
1 -3572 603 0
1 -3587 -558 0
1 3587 603 0
1 3587 573 0
1 -3587 543 0
1 602 3557 0
1 602 -3513 0
1 602 3437 0
1 602 -3407 0
1 602 -603 0
1 617 -3557 0
1 617 -618 0
1 -617 -3498 0
1 -617 -3437 0
1 617 -3422 0
1 632 -3392 0
1 -632 647 0
1 -632 -3498 0
1 -632 3542 0
1 -632 3453 0
1 -647 -646 0
1 647 -3528 0
1 -647 3513 0
1 647 -3483 0
1 -647 3423 0
1 3483 632 0
1 -3498 -707 0
1 3498 -677 0
1 -3498 588 0
1 3498 -723 0
1 -3498 -692 0
1 3513 -678 0
1 -3513 -647 0
1 3513 3512 0
1 -3513 -3514 0
1 -3528 -738 0
1 -3528 -678 0
1 3528 617 0
1 -3528 -663 0
1 -3528 632 0
1 3528 -3513 0
1 -3528 -602 0
1 3528 573 0
1 -662 -3483 0
1 662 -3453 0
1 -677 -3362 0
1 677 3407 0
1 677 -3377 0
1 -677 -3453 0
1 -677 3423 0
1 692 -3393 0
1 -692 3453 0
1 707 -706 0
1 707 3408 0
1 707 -3483 0
1 707 -3423 0
1 -3423 -782 0
1 3423 -3438 0
1 -3423 -632 0
1 3438 707 0
1 3438 -782 0
1 -3438 752 0
1 3438 767 0
1 -3453 647 0
1 -3453 692 0
1 3453 3454 0
1 722 3363 0
1 722 -3333 0
1 722 3303 0
1 -722 -3378 0
1 722 3348 0
1 737 -736 0
1 737 738 0
1 -752 3304 0
1 -752 -3288 0
1 752 767 0
1 767 -768 0
1 767 3334 0
1 -767 3273 0
1 767 -752 0
1 -767 -3408 0
1 767 -766 0
1 -3363 -737 0
1 3363 -3364 0
1 -3363 752 0
1 3363 692 0
1 3363 -796 0
1 -3378 3363 0
1 -3378 -722 0
1 3378 -3379 0
1 -3378 692 0
1 -3378 -767 0
1 3393 -737 0
1 -3393 -707 0
1 3393 -722 0
1 -3393 -692 0
1 -3393 -827 0
1 3408 -842 0
1 3408 782 0
1 3408 -3409 0
1 -3408 692 0
1 -781 -3304 0
1 -781 782 0
1 -796 3334 0
1 -796 3273 0
1 -796 -3243 0
1 796 781 0
1 -796 3319 0
1 -796 795 0
1 -811 3334 0
1 811 -3274 0
1 -811 -3289 0
1 811 -3259 0
1 -826 3289 0
1 -826 -3334 0
1 -826 3304 0
1 -826 3213 0
1 -826 -3259 0
1 -3304 902 0
1 3304 -811 0
1 3304 856 0
1 -3304 -767 0
1 3319 902 0
1 -3319 -781 0
1 3319 -917 0
1 -3319 3318 0
1 3319 796 0
1 -3334 902 0
1 3334 811 0
1 -3334 752 0
1 3334 -887 0
1 -841 -3319 0
1 -841 -3228 0
1 856 -3304 0
1 856 -3259 0
1 -856 3228 0
1 871 3274 0
1 871 3184 0
1 871 3229 0
1 886 3274 0
1 -886 -885 0
1 886 -3199 0
1 -3244 -901 0
1 3244 3243 0
1 3259 -901 0
1 -3259 871 0
1 3259 3258 0
1 -3259 -841 0
1 -3259 -946 0
1 3259 826 0
1 -3274 -947 0
1 3274 826 0
1 -3289 -3274 0
1 3289 947 0
1 -901 3109 0
1 901 3244 0
1 -901 -3154 0
1 -916 3169 0
1 916 -3109 0
1 -916 -3214 0
1 -916 3259 0
1 -931 -932 0
1 931 3214 0
1 931 946 0
1 946 947 0
1 -946 -3094 0
1 -946 3259 0
1 946 -3199 0
1 3184 3199 0
1 -3199 901 0
1 -3199 -3198 0
1 -3214 871 0
1 -3214 -3213 0
1 -3214 916 0
1 -3229 901 0
1 3229 -916 0
1 3229 -886 0
1 424 3781 0
1 -424 -3751 0
1 424 -423 0
1 -424 -3857 0
1 424 3796 0
1 -439 -3842 0
1 -439 -3781 0
1 -439 424 0
1 -439 3887 0
1 439 3857 0
1 439 -3766 0
1 454 -3872 0
1 -454 3751 0
1 454 -3857 0
1 454 3827 0
1 -469 -3872 0
1 469 -3842 0
1 469 3782 0
1 469 -468 0
1 3842 -514 0
1 3842 529 0
1 3842 -439 0
1 3857 -3842 0
1 -3857 -529 0
1 -3857 -499 0
1 -3872 -3871 0
1 -3887 3872 0
1 -3887 424 0
1 3887 3888 0
1 -3887 -469 0
1 484 -3842 0
1 484 483 0
1 -484 3692 0
1 484 3797 0
1 484 3766 0
1 -484 3707 0
1 -499 3812 0
1 -499 -3692 0
1 -499 -3736 0
1 514 -513 0
1 -514 3857 0
1 514 -3827 0
1 514 -3707 0
1 529 514 0
1 529 3752 0
1 -529 -528 0
1 529 -3857 0
1 -529 -3797 0
1 -3782 454 0
1 3782 619 0
1 3782 499 0
1 3782 -604 0
1 3797 -484 0
1 3797 454 0
1 -3797 -3798 0
1 -3812 -514 0
1 -3812 -484 0
1 3812 -604 0
1 -3827 454 0
1 3827 619 0
1 -3827 -3826 0
1 -544 -3722 0
1 -544 -543 0
1 -544 3797 0
1 559 3782 0
1 559 -3752 0
1 559 3692 0
1 -559 -558 0
1 559 -3662 0
1 -559 3767 0
1 -574 -589 0
1 -574 -3632 0
1 -574 3737 0
1 -574 3708 0
1 -589 -3782 0
1 589 3752 0
1 589 3722 0
1 589 -3797 0
1 589 -3767 0
1 -589 -3737 0
1 3722 -679 0
1 -3722 589 0
1 3722 -603 0
1 3737 -3722 0
1 -3737 529 0
1 -3737 3738 0
1 3737 603 0
1 -3737 -574 0
1 -3752 544 0
1 -3752 -679 0
1 -3752 589 0
1 3752 -3767 0
1 -3752 -604 0
1 3752 574 0
1 3767 3766 0
1 3767 634 0
1 -3767 -574 0
1 -603 -3617 0
1 603 3587 0
1 603 -3722 0
1 603 -3663 0
1 -603 3602 0
1 603 -3737 0
1 618 3617 0
1 618 3663 0
1 -633 3648 0
1 633 3633 0
1 -633 -632 0
1 633 634 0
1 633 -3678 0
1 -648 -649 0
1 -648 3663 0
1 648 -3603 0
1 648 3572 0
1 3663 678 0
1 3663 -589 0
1 3663 663 0
1 -3678 739 0
1 3678 678 0
1 -3678 -618 0
1 -3678 -589 0
1 -3678 633 0
1 3693 739 0
1 3693 648 0
1 3693 -618 0
1 3693 -3692 0
1 3693 -3708 0
1 3693 574 0
1 -663 3587 0
1 -663 678 0
1 663 3663 0
1 663 3633 0
1 663 3542 0
1 678 3648 0
1 678 3663 0
1 -693 3618 0
1 693 -3588 0
1 693 3603 0
1 708 -3618 0
1 708 -707 0
1 -708 -3588 0
1 708 -709 0
1 -708 3663 0
1 -708 -3603 0
1 -708 3573 0
1 3603 708 0
1 3603 -648 0
1 3603 -3602 0
1 -3603 -798 0
1 3618 -3617 0
1 3618 738 0
1 -3618 678 0
1 -3618 783 0
1 -3618 -753 0
1 3618 723 0
1 -3618 663 0
1 3633 -3648 0
1 3633 -754 0
1 -3633 3634 0
1 3648 3649 0
1 -3648 739 0
1 -3648 -708 0
1 3648 678 0
1 -3648 663 0
1 -3648 -633 0
1 -723 -3618 0
1 723 3558 0
1 -723 3528 0
1 723 -3498 0
1 723 3513 0
1 -738 -3618 0
1 738 -3558 0
1 738 -3528 0
1 738 -3513 0
1 -738 -3483 0
1 -738 -3453 0
1 -753 768 0
1 753 -3499 0
1 753 3468 0
1 -753 -3573 0
1 -753 -3514 0
1 753 3484 0
1 768 -3618 0
1 -768 -3573 0
1 -768 -767 0
1 -3543 768 0
1 3543 738 0
1 3543 -827 0
1 3558 768 0
1 -3558 738 0
1 -3558 693 0
1 -3558 858 0
1 -3558 -827 0
1 3573 -813 0
1 3573 -783 0
1 3573 -3572 0
1 -3573 -693 0
1 3573 -828 0
1 -3588 768 0
1 3588 -3573 0
1 3588 -858 0
1 -3588 -798 0
1 782 -3468 0
1 782 -3438 0
1 782 -3408 0
1 -782 3484 0
1 782 -797 0
1 -797 -3558 0
1 797 3468 0
1 797 3408 0
1 797 3484 0
1 797 -3514 0
1 797 -798 0
1 -797 3423 0
1 -812 -3393 0
1 812 3529 0
1 812 3469 0
1 812 -3514 0
1 -812 3454 0
1 3484 903 0
1 3484 -842 0
1 3484 -3499 0
1 -3484 -812 0
1 3484 -782 0
1 3484 797 0
1 3499 768 0
1 3499 -903 0
1 3499 -872 0
1 3499 782 0
1 3514 903 0
1 3514 -843 0
1 -3514 888 0
1 -3514 -827 0
1 3514 797 0
1 -3529 -873 0
1 -3529 -782 0
1 3529 -753 0
1 -842 -841 0
1 -842 -3499 0
1 -842 -3439 0
1 842 -3349 0
1 -842 3454 0
1 -857 -3363 0
1 -857 3378 0
1 -857 -856 0
1 -872 -3424 0
1 -872 -3334 0
1 -872 3439 0
1 -872 -3349 0
1 887 -3364 0
1 887 872 0
1 -887 -3499 0
1 -887 -886 0
1 -887 3484 0
1 887 -3454 0
1 3424 902 0
1 3424 812 0
1 3424 -857 0
1 -3439 -932 0
1 -3439 872 0
1 -3439 917 0
1 -3439 857 0
1 -3454 903 0
1 -3454 -3469 0
1 -3454 -948 0
1 -3454 -887 0
1 3469 -933 0
1 3469 -918 0
1 3469 -3454 0
1 902 3334 0
1 -902 -3409 0
1 902 3289 0
1 -917 3424 0
1 -917 3364 0
1 -917 902 0
1 -917 -3409 0
1 -917 3379 0
1 -917 916 0
1 932 931 0
1 -932 -3364 0
1 -932 -933 0
1 -932 947 0
1 -932 -3379 0
1 932 -3289 0
1 947 3274 0
1 -947 3379 0
1 -947 3289 0
1 3379 3364 0
1 3379 872 0
1 -3379 887 0
1 3394 -917 0
1 3409 932 0
1 -3409 902 0
1 -604 -3873 0
1 604 3858 0
1 619 3873 0
1 619 -3812 0
1 -619 -618 0
1 619 -3827 0
1 634 -3783 0
1 -634 3888 0
1 634 3828 0
1 649 -3873 0
1 649 3843 0
1 -649 3813 0
1 -649 3783 0
1 -649 -648 0
1 649 3888 0
1 649 3858 0
1 649 -3828 0
1 -649 3798 0
1 649 -3767 0
1 3843 619 0
1 3858 694 0
1 -3858 604 0
1 3888 -3873 0
1 3888 619 0
1 664 679 0
1 664 3752 0
1 664 -3767 0
1 664 -3693 0
1 664 3737 0
1 664 3828 0
1 664 663 0
1 679 3752 0
1 -679 3693 0
1 -679 3828 0
1 679 3708 0
1 -694 -3693 0
1 -694 -693 0
1 694 3768 0
1 -709 3843 0
1 709 -3783 0
1 709 3708 0
1 3783 709 0
1 -3783 -3782 0
1 3783 -784 0
1 3783 694 0
1 3783 -634 0
1 -3798 -754 0
1 3798 3797 0
1 3798 664 0
1 -3798 -799 0
1 3813 -709 0
1 3813 -3814 0
1 3813 -649 0
1 -3813 3828 0
1 -3828 -709 0
1 3828 3813 0
1 -3828 649 0
1 -3828 784 0
1 -3828 -634 0
1 724 -3783 0
1 724 3693 0
1 724 -3633 0
1 724 723 0
1 -724 -3798 0
1 -724 -3708 0
1 -724 -3678 0
1 739 -3753 0
1 -739 -3723 0
1 -739 -3693 0
1 -739 724 0
1 739 3798 0
1 739 -3738 0
1 -739 -3678 0
1 -754 -3783 0
1 754 753 0
1 -754 -3633 0
1 754 3798 0
1 -769 -768 0
1 769 3694 0
1 -769 3768 0
1 -3723 -769 0
1 -3723 709 0
1 -3723 844 0
1 -3723 3724 0
1 3723 783 0
1 3723 -859 0
1 -3738 769 0
1 -3738 -813 0
1 -3738 783 0
1 -3738 -754 0
1 -3738 3737 0
1 -3738 -828 0
1 -3753 -754 0
1 3753 -3768 0
1 -3753 -829 0
1 3768 -844 0
1 3768 754 0
1 3768 -724 0
1 -3768 3769 0
1 3768 859 0
1 -783 3618 0
1 783 3723 0
1 -783 -784 0
1 783 3603 0
1 783 3573 0
1 -783 798 0
1 -783 3679 0
1 798 -3648 0
1 798 -3709 0
1 -798 3679 0
1 -798 3664 0
1 798 -3573 0
1 798 799 0
1 813 -3649 0
1 -813 -3588 0
1 -813 3664 0
1 -813 3709 0
1 828 3649 0
1 828 -3694 0
1 828 -3664 0
1 828 3573 0
1 3664 -843 0
1 3664 783 0
1 -3664 919 0
1 -3679 769 0
1 -3679 -873 0
1 -3679 3678 0
1 3679 -843 0
1 -3679 -813 0
1 -3679 783 0
1 3679 -919 0
1 -3679 -798 0
1 3694 -874 0
1 3694 -3693 0
1 -3694 3709 0
1 -3694 798 0
1 3709 904 0
1 -3709 -3694 0
1 3709 919 0
1 -3709 -798 0
1 -843 -3529 0
1 -843 3573 0
1 843 -3514 0
1 -843 -858 0
1 -858 -3649 0
1 858 3619 0
1 858 -3664 0
1 858 -3634 0
1 -858 3604 0
1 858 3573 0
1 -858 -3514 0
1 -873 -3619 0
1 -873 3664 0
1 873 -888 0
1 888 -887 0
1 -888 889 0
1 -3604 3619 0
1 3604 -933 0
1 3604 -843 0
1 -3604 858 0
1 -3604 -828 0
1 -3619 -873 0
1 -3619 -843 0
1 3619 -813 0
1 -3619 -948 0
1 -3619 -828 0
1 3634 -3649 0
1 3634 -873 0
1 -3634 813 0
1 3634 -3633 0
1 3634 888 0
1 -3634 828 0
1 -3649 -3648 0
1 903 902 0
1 -903 3529 0
1 903 -3544 0
1 903 -3514 0
1 903 -3454 0
1 918 3619 0
1 918 3559 0
1 -918 3529 0
1 918 -3604 0
1 918 -3574 0
1 933 -3604 0
1 -933 -3454 0
1 -948 -3559 0
1 -948 -947 0
1 -948 -3604 0
1 948 3574 0
1 3544 -933 0
1 3544 -3559 0
1 3544 948 0
1 -3559 -3544 0
1 -3559 948 0
1 3574 -918 0
1 -3589 -933 0
1 3589 948 0
1 -3589 -3574 0
1 3589 -888 0
1 -784 -3753 0
1 -784 -783 0
1 -784 799 0
1 -799 3783 0
1 799 3753 0
1 -814 3874 0
1 -814 3844 0
1 814 -813 0
1 -814 3889 0
1 -814 -3829 0
1 814 -3799 0
1 814 829 0
1 -829 3874 0
1 -829 3753 0
1 829 -3889 0
1 829 3859 0
1 829 -3829 0
1 829 -3799 0
1 -3844 844 0
1 -3844 3859 0
1 3844 859 0
1 3859 -874 0
1 3859 814 0
1 3859 -3858 0
1 3859 889 0
1 3859 -799 0
1 3874 -829 0
1 -3874 799 0
1 -844 3694 0
1 -844 3859 0
1 844 -859 0
1 859 3784 0
1 859 3694 0
1 859 -3829 0
1 -874 -3844 0
1 874 3724 0
1 -874 -3769 0
1 -874 -3829 0
1 874 -3799 0
1 889 3844 0
1 -889 -3784 0
1 889 -874 0
1 -889 3754 0
1 889 3694 0
1 -889 -3829 0
1 889 888 0
1 -889 -3739 0
1 3784 -934 0
1 3784 3783 0
1 -3784 -3799 0
1 3784 -949 0
1 3784 859 0
1 3784 829 0
1 3799 829 0
1 -3814 -3813 0
1 3814 874 0
1 3814 3829 0
1 3814 889 0
1 -3829 859 0
1 904 3754 0
1 904 -3694 0
1 -904 -3664 0
1 904 -3739 0
1 919 3649 0
1 919 -904 0
1 -919 3694 0
1 -919 3634 0
1 -919 -3799 0
1 -919 3769 0
1 934 3649 0
1 -934 3739 0
1 -949 934 0
1 949 -3784 0
1 -949 -3754 0
1 -949 3634 0
1 -949 3769 0
1 3724 949 0
1 -3724 919 0
1 -3724 889 0
1 3754 934 0
1 3754 -3753 0
1 3754 949 0
1 -3769 904 0
1 -3769 -949 0
1 3769 -889 0
